PREC = Accurate
IBRION = 2
NSW = 40
NELMIN = 10
ISIF = 3
ENCUT = 500
EDIFF = 1e-6
EDIFFG = -1e-4
ISMEAR = 0
SIGMA = 1.000000e-02
IALGO = 38
LREAL = .FALSE.
LWAVE = .FALSE.
ADDGRID = .TRUE.
LCHARG = .FALSE.
NPAR = 4
