      PREC = Accurate
    IBRION = 2
       NSW = 40
    NELMIN = 10
      NELM = 40
      ISIF = 3
     ENCUT = 500
     EDIFF = 1.000000e-06
    EDIFFG = -1.000000e-04
    ISMEAR = 0
     SIGMA = 1.000000e-02
     IALGO = 38
     LREAL = .FALSE.
     LWAVE = .FALSE.
    LCHARG = .FALSE.
      NPAR = 4
